
  22   10
  10   10   10   10   10   10   10   10   10   10

   0   0   0   0   0   0   0   0   0   0   0   2 2 3 
   7  10  10  10  10  10  10  10  10  10  10   4 10 8 7 6 
   7  10  10  10  10  10  10  10  10  10  10   3 9 7 4 
   6  10  10  10  10  10  10  10  10  10  10   1 5 
   4  10  10  10  10  10  10  10  10  10  10   3 15 12 10 
   9  10  10  10  10  10  10  10  10  10  10   3 12 11 9 
   1  10  10  10  10  10  10  10  10  10  10   2 15 11 
  10  10  10  10  10  10  10  10  10  10  10   2 12 11 
   2  10  10  10  10  10  10  10  10  10  10   3 15 14 13 
   4  10  10  10  10  10  10  10  10  10  10   1 11 
   8  10  10  10  10  10  10  10  10  10  10   2 14 13 
   6  10  10  10  10  10  10  10  10  10  10   1 13 
   9  10  10  10  10  10  10  10  10  10  10   1 16 
   4  10  10  10  10  10  10  10  10  10  10   1 16 
   5  10  10  10  10  10  10  10  10  10  10   1 16 
   1  10  10  10  10  10  10  10  10  10  10   2 19 17 
   8  10  10  10  10  10  10  10  10  10  10   2 20 18 
   3  10  10  10  10  10  10  10  10  10  10   1 21 
   3  10  10  10  10  10  10  10  10  10  10   1 20 
   2  10  10  10  10  10  10  10  10  10  10   1 22
   8  10  10  10  10  10  10  10  10  10  10   1 22
   0   0   0   0   0   0   0   0   0   0   0   0 
